1111100 AB
313 1423 13 43 73 103 133 163 193 223 253 283
1111100 BA
300 330 30 60 90 120 150 180 210 240 270
0000011 AB
313 1423 13 43 73 103 133 163 193 223 253 283
0000011 BA
300 330 30 60 90 120 150 180 210 240 270
